Set parameter TokenServer to value "hpc-licenses.hpcc.usc.edu"
Set parameter TimeLimit to value 3600
Gurobi Optimizer version 9.5.1 build v9.5.1rc2 (linux64)
Thread count: 20 physical cores, 20 logical processors, using up to 20 threads
Optimize a model with 6007 rows, 4529 columns and 24534 nonzeros
Model fingerprint: 0xe0397d97
Variable types: 4506 continuous, 23 integer (23 binary)
Coefficient statistics:
  Matrix range     [1e+00, 1e+00]
  Objective range  [8e-04, 1e+00]
  Bounds range     [1e+00, 1e+00]
  RHS range        [1e+00, 1e+02]
Presolve removed 1520 rows and 1515 columns
Presolve time: 0.10s
Presolved: 4487 rows, 3014 columns, 21975 nonzeros
Variable types: 2994 continuous, 20 integer (20 binary)
Found heuristic solution: objective 260.2082623

Root relaxation: objective 2.684307e+02, 3008 iterations, 0.09 seconds (0.15 work units)

    Nodes    |    Current Node    |     Objective Bounds      |     Work
 Expl Unexpl |  Obj  Depth IntInf | Incumbent    BestBd   Gap | It/Node Time

     0     0  268.43070    0    2  260.20826  268.43070  3.16%     -    0s
     0     0  268.34738    0    2  260.20826  268.34738  3.13%     -    0s
H    0     0                     262.3972053  268.19292  2.21%     -    0s
     0     0  268.19292    0    4  262.39721  268.19292  2.21%     -    0s
H    0     0                     267.7143040  268.01380  0.11%     -    0s
     0     0  268.01380    0    4  267.71430  268.01380  0.11%     -    0s
     0     0  267.71430    0    5  267.71430  267.71430  0.00%     -    0s

Cutting planes:
  Gomory: 4
  MIR: 104
  Flow cover: 1
  RLT: 6
  Relax-and-lift: 3

Explored 1 nodes (3677 simplex iterations) in 0.79 seconds (0.64 work units)
Thread count was 20 (of 20 available processors)

Solution count 3: 267.714 262.397 260.208 

Optimal solution found (tolerance 1.00e-04)
Best objective 2.677143039643e+02, best bound 2.677143039643e+02, gap 0.0000%



#########node  1
V1.8
#########node  2
0.0196078431372549,0.9803921568627451
#########node  3
1.0,0.0


Total Solving Time 1.2059047222137451
obj value 267.7143039642718
Policy Regret train (Sum) 13.487813242844421
Best Treatment Found train (%) 49.0
treatment classification acc train (%) 53.400000000000006
Policy Regret test (Sum) 61.813832268000596
Best Treatment Found test (%) 75.11
treatment classification acc test (%) 50.96000000000001
Set parameter TokenServer to value "hpc-licenses.hpcc.usc.edu"
Set parameter TimeLimit to value 3600
Gurobi Optimizer version 9.5.1 build v9.5.1rc2 (linux64)
Thread count: 20 physical cores, 20 logical processors, using up to 20 threads
Optimize a model with 6007 rows, 4529 columns and 24534 nonzeros
Model fingerprint: 0xe0397d97
Variable types: 4506 continuous, 23 integer (23 binary)
Coefficient statistics:
  Matrix range     [1e+00, 1e+00]
  Objective range  [8e-04, 1e+00]
  Bounds range     [1e+00, 1e+00]
  RHS range        [1e+00, 1e+02]
Presolve removed 1520 rows and 1515 columns
Presolve time: 0.08s
Presolved: 4487 rows, 3014 columns, 21975 nonzeros
Variable types: 2994 continuous, 20 integer (20 binary)
Found heuristic solution: objective 260.2082623

Root relaxation: objective 2.684307e+02, 3008 iterations, 0.14 seconds (0.15 work units)

    Nodes    |    Current Node    |     Objective Bounds      |     Work
 Expl Unexpl |  Obj  Depth IntInf | Incumbent    BestBd   Gap | It/Node Time

     0     0  268.43070    0    2  260.20826  268.43070  3.16%     -    0s
     0     0  268.34738    0    2  260.20826  268.34738  3.13%     -    0s
H    0     0                     262.3972053  268.19292  2.21%     -    0s
     0     0  268.19292    0    4  262.39721  268.19292  2.21%     -    0s
H    0     0                     267.7143040  268.01380  0.11%     -    0s
     0     0  268.01380    0    4  267.71430  268.01380  0.11%     -    0s
     0     0  267.71430    0    5  267.71430  267.71430  0.00%     -    0s

Cutting planes:
  Gomory: 4
  MIR: 104
  Flow cover: 1
  RLT: 6
  Relax-and-lift: 3

Explored 1 nodes (3677 simplex iterations) in 0.80 seconds (0.64 work units)
Thread count was 20 (of 20 available processors)

Solution count 3: 267.714 262.397 260.208 

Optimal solution found (tolerance 1.00e-04)
Best objective 2.677143039643e+02, best bound 2.677143039643e+02, gap 0.0000%



#########node  1
V1.8
#########node  2
0.0196078431372549,0.9803921568627451
#########node  3
1.0,0.0


Total Solving Time 1.1773056983947754
obj value 267.7143039642718
Policy Regret train (Sum) 13.487813242844421
Best Treatment Found train (%) 49.0
treatment classification acc train (%) 53.400000000000006
Policy Regret test (Sum) 61.813832268000596
Best Treatment Found test (%) 75.11
treatment classification acc test (%) 50.96000000000001
